NAME : Kinder4
COMMENT : teste kinder 4
TYPE : CVRP
DIMENSION : 5
EDGE_WEIGHT_TYPE : EUC_2D 
CAPACITY : 2.5
NODE_COORD_SECTION 
1 0 0
2 0 3
3 4 6
4 4 0
5 9 3
DEMAND_SECTION
1 0
2 1.0
3 1.0
4 1.0
5 1.0
DEPOT_SECTION 
 1  
 -1  
EOF
